%nproc=8
%mem=24GB
%chk=dimer_013_012.chk
%rwf=dimer_013_012.rwf
#p B3LYP/6-31G(d) empiricaldispersion=GD3 scrf(pcm,solvent=benzene,read) nosymm

dimer_013_012

0 1
S      18.110001     0.880000    -2.310000
C      15.460000     0.640000    -1.630000
C      16.740000     0.400000    -1.330000
C      17.170000    -0.170000    -0.110000
C      16.190001    -0.570000     0.800000
C      14.820000    -0.360000     0.520000
C      13.770000    -0.730000     1.400000
C      12.460000    -0.460000     1.120000
C      12.090000     0.150000    -0.100000
C      13.070000     0.510000    -0.990000
C      14.440000     0.260000    -0.730000
C      18.600000    -0.180000     0.040000
C      19.260000     0.410000    -1.080000
C      20.610001     0.600000    -1.130000
C      10.630000     0.470000    -0.350000
H      10.195910     0.014200    -1.239890
H      15.230000     1.050000    -2.450000
H      16.450001    -0.980000     1.610000
H      13.990000    -1.180000     2.200000
H      11.790000    -0.680000     1.740000
H      12.830000     0.950000    -1.790000
H      21.010000     1.000000    -1.880000
H      10.110000     0.180000     0.430000
H      10.540000     1.440000    -0.420000
S      21.870001    -0.880000     2.310000
C      24.530001    -0.640000     1.630000
C      23.240000    -0.400000     1.330000
C      22.809999     0.170000     0.110000
C      23.790001     0.570000    -0.800000
C      25.160000     0.360000    -0.520000
C      26.209999     0.730000    -1.400000
C      27.530001     0.460000    -1.120000
C      27.900000    -0.150000     0.100000
C      26.910000    -0.510000     0.990000
C      25.540001    -0.260000     0.730000
C      21.379999     0.180000    -0.040000
C      20.719999    -0.410000     1.080000
C      19.370001    -0.600000     1.130000
C      29.350000    -0.470000     0.350000
H      29.784090    -0.014200     1.239890
H      24.750000    -1.050000     2.450000
H      23.540001     0.980000    -1.610000
H      25.990000     1.180000    -2.200000
H      28.190001     0.680000    -1.740000
H      27.150000    -0.950000     1.790000
H      18.969999    -1.000000     1.880000
H      29.870001    -0.180000    -0.430000
H      29.450001    -1.440000     0.420000
S      18.540001     0.880000    -8.420000
C      15.890000     0.640000    -7.750000
C      17.170000     0.400000    -7.440000
C      17.600000    -0.170000    -6.230000
C      16.620001    -0.570000    -5.310000
C      15.250000    -0.360000    -5.590000
C      14.210000    -0.730000    -4.710000
C      12.890000    -0.460000    -4.990000
C      12.520000     0.150000    -6.210000
C      13.500000     0.510000    -7.100000
C      14.870000     0.260000    -6.840000
C      19.030001    -0.180000    -6.080000
C      19.690001     0.410000    -7.200000
C      21.040001     0.600000    -7.250000
C      11.060000     0.470000    -6.460000
H      10.625910     0.014200    -7.349890
H      15.660000     1.050000    -8.560000
H      16.879999    -0.980000    -4.500000
H      14.420000    -1.180000    -3.910000
H      12.220000    -0.680000    -4.370000
H      13.260000     0.950000    -7.900000
H      21.440001     1.000000    -7.990000
H      10.540000     0.180000    -5.680000
H      10.970000     1.440000    -6.530000
S      22.299999    -0.880000    -3.800000
C      24.959999    -0.640000    -4.480000
C      23.670000    -0.400000    -4.780000
C      23.240000     0.170000    -6.000000
C      24.219999     0.570000    -6.920000
C      25.600000     0.360000    -6.630000
C      26.639999     0.730000    -7.510000
C      27.959999     0.460000    -7.230000
C      28.330000    -0.150000    -6.010000
C      27.340000    -0.510000    -5.120000
C      25.980000    -0.260000    -5.390000
C      21.809999     0.180000    -6.150000
C      21.150000    -0.410000    -5.030000
C      19.799999    -0.600000    -4.980000
C      29.780001    -0.470000    -5.760000
H      30.214090    -0.014200    -4.870110
H      25.180000    -1.050000    -3.660000
H      23.969999     0.980000    -7.720000
H      26.420000     1.180000    -8.310000
H      28.620001     0.680000    -7.860000
H      27.580000    -0.950000    -4.320000
H      19.400000    -1.000000    -4.230000
H      30.299999    -0.180000    -6.540000
H      29.879999    -1.440000    -5.690000

eps=4.0

