%nproc=8
%mem=24GB
%chk=dimer_013_023.chk
%rwf=dimer_013_023.rwf
#p B3LYP/6-31G(d) empiricaldispersion=GD3 scrf(pcm,solvent=benzene,read) nosymm

dimer_013_023

0 1
S      18.110001     0.880000    -2.310000
C      15.460000     0.640000    -1.630000
C      16.740000     0.400000    -1.330000
C      17.170000    -0.170000    -0.110000
C      16.190001    -0.570000     0.800000
C      14.820000    -0.360000     0.520000
C      13.770000    -0.730000     1.400000
C      12.460000    -0.460000     1.120000
C      12.090000     0.150000    -0.100000
C      13.070000     0.510000    -0.990000
C      14.440000     0.260000    -0.730000
C      18.600000    -0.180000     0.040000
C      19.260000     0.410000    -1.080000
C      20.610001     0.600000    -1.130000
C      10.630000     0.470000    -0.350000
H      10.195910     0.014200    -1.239890
H      15.230000     1.050000    -2.450000
H      16.450001    -0.980000     1.610000
H      13.990000    -1.180000     2.200000
H      11.790000    -0.680000     1.740000
H      12.830000     0.950000    -1.790000
H      21.010000     1.000000    -1.880000
H      10.110000     0.180000     0.430000
H      10.540000     1.440000    -0.420000
S      21.870001    -0.880000     2.310000
C      24.530001    -0.640000     1.630000
C      23.240000    -0.400000     1.330000
C      22.809999     0.170000     0.110000
C      23.790001     0.570000    -0.800000
C      25.160000     0.360000    -0.520000
C      26.209999     0.730000    -1.400000
C      27.530001     0.460000    -1.120000
C      27.900000    -0.150000     0.100000
C      26.910000    -0.510000     0.990000
C      25.540001    -0.260000     0.730000
C      21.379999     0.180000    -0.040000
C      20.719999    -0.410000     1.080000
C      19.370001    -0.600000     1.130000
C      29.350000    -0.470000     0.350000
H      29.784090    -0.014200     1.239890
H      24.750000    -1.050000     2.450000
H      23.540001     0.980000    -1.610000
H      25.990000     1.180000    -2.200000
H      28.190001     0.680000    -1.740000
H      27.150000    -0.950000     1.790000
H      18.969999    -1.000000     1.880000
H      29.870001    -0.180000    -0.430000
H      29.450001    -1.440000     0.420000
S      21.660000    -2.980000     5.370000
C      24.309999    -3.220000     4.690000
C      23.020000    -3.450000     4.390000
C      22.590000    -4.020000     3.170000
C      23.570000    -4.420000     2.250000
C      24.950001    -4.210000     2.540000
C      25.990000    -4.590000     1.660000
C      27.309999    -4.310000     1.940000
C      27.680000    -3.710000     3.160000
C      26.690001    -3.340000     4.040000
C      25.330000    -3.600000     3.780000
C      21.160000    -4.030000     3.020000
C      20.510000    -3.450000     4.140000
C      19.160000    -3.260000     4.190000
C      29.139999    -3.390000     3.410000
H      29.569170    -3.840990     4.304720
H      24.540001    -2.810000     5.500000
H      23.320000    -4.830000     1.440000
H      25.780001    -5.030000     0.860000
H      27.980000    -4.540000     1.310000
H      26.930000    -2.910000     4.840000
H      18.750000    -2.860000     4.940000
H      29.650000    -3.680000     2.630000
H      29.230000    -2.410000     3.480000
S      17.900000    -4.730000     0.750000
C      15.240000    -4.490000     1.420000
C      16.530001    -4.260000     1.730000
C      16.959999    -3.690000     2.940000
C      15.980000    -3.290000     3.860000
C      14.600000    -3.500000     3.580000
C      13.560000    -3.120000     4.460000
C      12.240000    -3.400000     4.170000
C      11.870000    -4.000000     2.950000
C      12.860000    -4.370000     2.070000
C      14.220000    -4.110000     2.330000
C      18.389999    -3.680000     3.090000
C      19.040001    -4.260000     1.970000
C      20.389999    -4.450000     1.920000
C      10.420000    -4.320000     2.700000
H       9.984700    -3.870200     1.807650
H      15.010000    -4.910000     0.610000
H      16.230000    -2.880000     4.670000
H      13.770000    -2.680000     5.260000
H      11.580000    -3.170000     4.800000
H      12.620000    -4.800000     1.270000
H      20.799999    -4.850000     1.170000
H       9.900000    -4.030000     3.480000
H      10.320000    -5.300000     2.630000

eps=4.0

