%nproc=8
%mem=24GB
%chk=monomer_022.chk
#p B3LYP/6-31G(d) empiricaldispersion=GD3 scrf(pcm,solvent=benzene,read) nosymm

monomer_022

0 1
S      22.090000    -2.980000    -0.750000
C      24.740000    -3.220000    -1.420000
C      23.450001    -3.450000    -1.730000
C      23.020000    -4.020000    -2.940000
C      24.000000    -4.420000    -3.860000
C      25.379999    -4.210000    -3.580000
C      26.420000    -4.590000    -4.460000
C      27.740000    -4.310000    -4.170000
C      28.110001    -3.710000    -2.950000
C      27.120001    -3.340000    -2.070000
C      25.760000    -3.600000    -2.330000
C      21.590000    -4.030000    -3.090000
C      20.940001    -3.450000    -1.970000
C      19.590000    -3.260000    -1.920000
C      29.570000    -3.390000    -2.700000
H      29.999170    -3.840990    -1.805280
H      24.969999    -2.810000    -0.610000
H      23.750000    -4.830000    -4.670000
H      26.209999    -5.030000    -5.260000
H      28.410000    -4.540000    -4.800000
H      27.360001    -2.910000    -1.270000
H      19.180000    -2.860000    -1.170000
H      30.080000    -3.680000    -3.480000
H      29.660000    -2.410000    -2.630000
S      18.330000    -4.730000    -5.370000
C      15.670000    -4.490000    -4.690000
C      16.959999    -4.260000    -4.390000
C      17.389999    -3.690000    -3.170000
C      16.410000    -3.290000    -2.250000
C      15.030000    -3.500000    -2.540000
C      13.990000    -3.120000    -1.660000
C      12.670000    -3.400000    -1.940000
C      12.300000    -4.000000    -3.160000
C      13.290000    -4.370000    -4.040000
C      14.650000    -4.110000    -3.780000
C      18.820000    -3.680000    -3.020000
C      19.469999    -4.260000    -4.140000
C      20.820000    -4.450000    -4.190000
C      10.850000    -4.320000    -3.410000
H      10.414710    -3.870200    -4.302350
H      15.440000    -4.910000    -5.500000
H      16.660000    -2.880000    -1.440000
H      14.200000    -2.680000    -0.860000
H      12.010000    -3.170000    -1.310000
H      13.050000    -4.800000    -4.840000
H      21.230000    -4.850000    -4.940000
H      10.330000    -4.030000    -2.630000
H      10.750000    -5.300000    -3.480000

eps=4.0

