%nproc={{ nproc }}
%mem={{ mem }}GB
%chk={{ dimername }}.chk
%rwf={{ dimername }}.rwf
#p {{ funct }}/{{ basis }} empiricaldispersion={{ disp }} scrf(pcm,solvent=benzene,read) nosymm

{{ dimername }}

0 1
{% for atom in mol %}{{ "%-3s"|format(atom[0]) }} {{ "%12.6f"|format(atom[1])}} {{ "%12.6f"|format(atom[2])}} {{ "%12.6f"|format(atom[3]) }}
{% endfor %}
eps=4.0


